p cnf 167 766
-14 29 -26 -2 0
-8 -14 -20 30 0
-14 31 -11 -17 0
32 -8 -5 -2 0
33 -20 -23 -26 0
-8 34 -26 -17 0
35 -20 -11 -2 0
-23 -14 -5 36 0
-6 37 -25 0
-12 -19 38 0
-24 -7 39 0
40 -13 -18 0
-24 41 -6 0
42 -12 -18 0
-7 43 -25 0
-13 44 -19 0
-21 -4 45 0
-28 46 -9 0
-27 -10 47 0
48 -22 -3 0
49 -11 -18 0
50 -12 -17 0
-23 -6 51 0
-24 -5 52 0
-3 -21 53 0
-27 54 -9 0
-15 -13 55 0
56 -15 -19 0
57 -20 -3 0
58 -26 -9 0
-8 59 -27 0
-21 60 -2 0
-27 61 -25 0
-32 -61 -55 -21 -17 0
-32 -61 -11 -56 -21 0
-7 62 -9 0
-62 -55 -33 -3 -17 0
-62 -11 -56 -3 -33 0
-21 -28 63 0
-32 -63 -11 -56 -24 0
-32 -63 -24 -55 -17 0
64 -3 -10 0
-64 -33 -55 -6 -17 0
-64 -11 -56 -6 -33 0
-24 65 -22 0
-32 -27 -55 -65 -17 0
-32 -27 -11 -56 -65 0
-6 -4 66 0
-9 -55 -33 -66 -17 0
-11 -9 -56 -66 -33 0
-7 67 -23 0
-5 68 -25 0
-15 -12 69 0
-15 -18 70 0
-16 -12 71 0
-16 72 -18 0
73 -19 -11 0
74 -13 -17 0
77 -27 -2 0
-20 78 -9 0
-3 -26 79 0
-8 80 -21 0
81 -4 -20 0
82 -10 -26 0
-8 83 -28 0
-22 84 -2 0
-24 85 -20 -27 0
-6 87 -2 -9 0
89 -15 -25 0
-15 90 -7 0
-15 91 -11 0
-15 92 -17 0
-5 -4 93 -9 0
-23 -22 -27 94 0
-24 -28 -20 95 0
96 -6 -10 -2 0
97 -14 -18 0
-14 -12 98 0
-8 99 -3 0
88 -6 -99 0
-21 100 -26 0
-24 -100 86 0
-23 -21 101 0
-101 76 -27 0
-5 -3 102 0
-102 75 -9 0
-28 -2 103 0
-8 -22 104 0
105 -4 -26 0
106 -20 -10 0
-16 107 -17 0
-16 108 -11 0
-14 -13 109 0
-14 -19 110 0
-21 111 -29 0
-111 -49 -51 -9 0
-111 -38 -68 -9 0
-40 -111 -68 -9 0
-111 -51 -50 -9 0
-111 -44 -51 -9 0
-111 -49 -52 -9 0
-111 -41 -11 -9 -17 0
-111 -52 -50 -9 0
-111 -52 -44 -9 0
-111 -44 -39 -10 0
-111 -37 -44 -10 0
-111 -44 -43 -9 0
-111 -39 -73 -9 0
-111 -37 -73 -9 0
-111 -73 -10 -41 0
-111 -39 -74 -9 0
-111 -74 -10 -41 0
-111 -37 -74 -9 0
-111 -49 -43 -9 0
-111 -39 -10 -49 0
-111 -37 -10 -49 0
-111 -39 -50 -10 0
-111 -37 -50 -10 0
-111 -43 -50 -9 0
112 -30 -3 0
-112 -52 -27 -49 0
-112 -52 -27 -50 0
-112 -44 -52 -27 0
-112 -27 -11 -41 -17 0
-112 -39 -27 -73 0
-112 -73 -28 -41 0
-112 -37 -27 -73 0
-112 -44 -28 -37 0
-112 -39 -44 -28 0
-112 -39 -27 -74 0
-112 -37 -27 -74 0
-43 -112 -44 -27 0
-112 -28 -74 -41 0
-43 -112 -27 -49 0
-40 -112 -27 -67 0
-112 -39 -28 -49 0
-112 -37 -28 -49 0
-112 -38 -27 -67 0
-112 -39 -28 -50 0
-112 -37 -28 -50 0
-43 -112 -27 -50 0
-51 -112 -27 -49 0
-51 -112 -27 -50 0
-51 -112 -44 -27 0
113 -22 -29 -9 0
-37 -50 -113 0
-40 -43 -113 0
-39 -44 -113 0
-37 -44 -113 0
-40 -51 -113 0
-73 -41 -113 0
-38 -51 -113 0
-41 -74 -113 0
-40 -52 -113 0
-68 -42 -113 0
-38 -52 -113 0
-39 -49 -113 0
-38 -43 -113 0
-49 -37 -113 0
-39 -50 -113 0
-30 -4 -27 114 0
-40 -51 -114 0
-42 -67 -114 0
-37 -44 -114 0
-39 -44 -114 0
-38 -51 -114 0
-74 -114 -41 0
-40 -52 -114 0
-38 -52 -114 0
-39 -114 -49 0
-37 -114 -49 0
-38 -43 -114 0
-39 -50 -114 0
-37 -50 -114 0
-41 -114 -73 0
-40 -43 -114 0
115 -28 -10 0
-35 -97 -115 -41 0
-22 116 -4 0
-98 -116 -34 -41 0
-16 117 -33 0
-117 -44 -66 -9 0
-40 -87 -117 0
-87 -38 -117 0
-62 -117 -42 -2 0
-88 -117 -40 0
-38 -62 -117 -4 0
-88 -38 -117 0
-62 -117 -3 -49 0
-40 -62 -117 -4 0
-62 -117 -44 -3 0
-62 -117 -3 -50 0
-40 -117 -75 0
-38 -117 -75 0
-64 -7 -38 -117 0
-64 -117 -42 -5 0
-64 -6 -117 -44 0
-93 -117 -42 0
-64 -7 -117 -40 0
-64 -6 -117 -49 0
-64 -6 -117 -50 0
-96 -117 -42 0
-8 -117 -66 -42 0
-7 -117 -99 -42 0
-117 -9 -66 -49 0
-117 -66 -50 -9 0
-32 -16 118 0
-40 -118 -85 0
-38 -85 -118 0
-86 -38 -118 0
-40 -86 -118 0
-118 -61 -50 -21 0
-38 -22 -61 -118 0
-118 -61 -20 -42 0
-49 -118 -61 -21 0
-40 -22 -61 -118 0
-118 -61 -44 -21 0
-40 -118 -76 0
-38 -76 -118 0
-24 -63 -118 -44 0
-24 -63 -118 -50 0
-63 -118 -23 -42 0
-94 -42 -118 0
-40 -63 -118 -25 0
-63 -118 -38 -25 0
-95 -118 -42 0
-24 -63 -118 -49 0
-65 -118 -27 -49 0
-118 -100 -42 -25 0
-118 -27 -50 -65 0
-118 -44 -27 -65 0
-118 -42 -26 -65 0
-15 119 -33 0
-87 -119 -44 0
-87 -119 -49 0
-87 -119 -50 0
-88 -119 -49 0
-88 -119 -50 0
-88 -119 -44 0
-119 -75 -50 0
-119 -44 -75 0
-119 -75 -49 0
-40 -119 -93 0
-119 -38 -93 0
-119 -62 -4 -50 0
-119 -62 -38 -2 0
-96 -119 -40 0
-119 -62 -44 -4 0
-119 -62 -4 -49 0
-96 -119 -38 0
-40 -119 -62 -2 0
-64 -119 -38 -5 0
-64 -119 -5 -40 0
-8 -119 -38 -66 0
-119 -50 -66 -10 0
-119 -66 -10 -49 0
-8 -119 -66 -40 0
-119 -44 -66 -10 0
-32 -15 120 0
-120 -76 -50 0
-120 -44 -76 0
-120 -76 -49 0
-120 -94 -38 0
-40 -94 -120 0
-40 -95 -120 0
-120 -95 -38 0
-120 -38 -61 -20 0
-120 -22 -61 -49 0
-120 -22 -61 -44 0
-120 -61 -20 -40 0
-120 -22 -61 -50 0
-120 -63 -38 -23 0
-120 -63 -23 -40 0
-120 -38 -26 -65 0
-120 -28 -50 -65 0
-120 -65 -28 -49 0
-120 -65 -26 -40 0
-120 -44 -28 -65 0
-120 -85 -44 0
-120 -85 -50 0
-120 -85 -49 0
-120 -86 -49 0
-120 -86 -50 0
-120 -86 -44 0
-16 121 -19 -35 0
-46 -37 -121 0
-39 -46 -121 0
-47 -39 -121 0
-41 -59 -121 0
-47 -37 -121 0
-41 -115 -121 0
-54 -43 -121 0
-54 -51 -121 0
-54 -52 -121 0
-41 -58 -121 0
-16 122 -13 -34 0
-48 -37 -122 0
-53 -43 -122 0
-53 -51 -122 0
-53 -52 -122 0
-48 -39 -122 0
-60 -122 -41 0
-39 -45 -122 0
-116 -122 -41 0
-41 -122 -57 0
-45 -37 -122 0
123 -22 -29 -10 0
-52 -123 -42 0
-38 -37 -123 0
-41 -123 -49 0
-39 -38 -123 0
-40 -39 -123 0
-123 -50 -41 0
-40 -37 -123 0
-43 -42 -123 0
-51 -42 -123 0
-44 -123 -41 0
124 -30 -28 -4 0
-41 -124 -49 0
-38 -37 -124 0
-124 -50 -41 0
-39 -38 -124 0
-40 -39 -124 0
-40 -37 -124 0
-124 -51 -42 0
-124 -43 -42 0
-124 -52 -42 0
-124 -44 -41 0
-31 -53 125 0
-46 -125 -67 0
-39 -125 -82 0
-51 -125 -59 0
-47 -125 -67 0
-37 -125 -83 0
-47 -125 -68 0
-39 -125 -83 0
-46 -125 -68 0
-8 -125 -26 -41 0
-125 -43 -58 0
-23 -54 -5 -125 0
-125 -43 -115 0
-125 -52 -58 0
-125 -51 -115 0
-125 -52 -115 0
-37 -125 -82 0
-43 -125 -59 0
-31 -54 126 0
-48 -126 -68 0
-126 -116 -43 0
-126 -45 -68 0
-126 -43 -57 0
-39 -126 -84 0
-126 -116 -51 0
-126 -37 -81 0
-126 -52 -116 0
-126 -60 -43 0
-126 -52 -57 0
-126 -60 -51 0
-126 -37 -84 0
-39 -126 -81 0
-126 -20 -2 -41 0
-48 -126 -67 0
-126 -45 -67 0
-45 -36 127 0
-47 -127 -49 0
-47 -127 -50 0
-127 -46 -50 0
-127 -54 -73 0
-127 -82 -42 0
-127 -54 -74 0
-40 -127 -58 0
-40 -127 -115 0
-127 -38 -115 0
-127 -38 -58 0
-127 -46 -44 0
-127 -83 -42 0
-47 -127 -44 0
-127 -38 -59 0
-40 -127 -59 0
-127 -46 -49 0
-48 -36 128 0
-128 -47 -50 0
-128 -83 -42 0
-40 -128 -115 0
-128 -38 -115 0
-128 -38 -58 0
-40 -128 -58 0
-128 -47 -49 0
-128 -38 -59 0
-40 -128 -59 0
-128 -46 -44 0
-128 -47 -44 0
-128 -54 -73 0
-128 -46 -50 0
-128 -46 -49 0
-128 -42 -82 0
-128 -54 -74 0
129 -69 -34 0
-116 -43 -129 0
-45 -67 -129 0
-116 -52 -129 0
-60 -51 -129 0
-81 -37 -129 0
-57 -52 -129 0
-45 -68 -129 0
-48 -68 -129 0
-48 -67 -129 0
-39 -81 -129 0
-57 -43 -129 0
-116 -51 -129 0
-60 -43 -129 0
-37 -84 -129 0
-39 -84 -129 0
-70 -35 130 0
-37 -82 -130 0
-39 -82 -130 0
-47 -68 -130 0
-51 -59 -130 0
-43 -130 -115 0
-52 -115 -130 0
-51 -130 -115 0
-37 -83 -130 0
-46 -68 -130 0
-43 -59 -130 0
-46 -67 -130 0
-58 -43 -130 0
-47 -67 -130 0
-52 -58 -130 0
-39 -83 -130 0
-71 131 -34 0
-84 -131 -41 0
-39 -131 -57 0
-48 -131 -43 0
-131 -45 -43 0
-37 -60 -131 0
-45 -52 -131 0
-48 -131 -51 0
-37 -131 -57 0
-131 -45 -51 0
-39 -60 -131 0
-37 -116 -131 0
-39 -116 -131 0
-48 -52 -131 0
-41 -131 -81 0
-72 132 -35 0
-46 -52 -132 0
-37 -132 -59 0
-39 -132 -59 0
-46 -132 -51 0
-47 -52 -132 0
-47 -132 -43 0
-37 -132 -58 0
-46 -132 -43 0
-132 -82 -41 0
-37 -132 -115 0
-47 -132 -51 0
-39 -132 -115 0
-39 -132 -58 0
-132 -83 -41 0
-55 133 -34 0
-53 -67 -133 0
-45 -51 -133 0
-48 -133 -43 0
-45 -52 -133 0
-48 -133 -52 0
-45 -43 -133 0
-48 -133 -51 0
-53 -68 -133 0
-37 -60 -133 0
-39 -133 -60 0
-37 -116 -133 0
-39 -133 -116 0
-57 -37 -133 0
-39 -133 -57 0
-56 -35 134 0
-134 -37 -59 0
-39 -134 -59 0
-47 -134 -51 0
-46 -52 -134 0
-47 -134 -52 0
-46 -43 -134 0
-47 -134 -43 0
-46 -51 -134 0
-134 -37 -115 0
-39 -134 -115 0
-54 -67 -134 0
-54 -68 -134 0
-134 -37 -58 0
-39 -134 -58 0
-31 -41 135 0
-135 -115 -57 0
-135 -46 -81 0
-47 -135 -81 0
-135 -60 -115 0
-135 -45 -82 0
-48 -135 -82 0
-135 -116 -58 0
-135 -45 -83 0
-135 -116 -59 0
-48 -135 -83 0
-135 -46 -84 0
-47 -84 -135 0
-135 -116 -115 0
136 -29 -42 0
-80 -136 -51 0
-136 -37 -106 0
-80 -52 -136 0
-136 -39 -106 0
-80 -136 -43 0
-136 -78 -43 0
-136 -78 -52 0
-136 -5 -101 -9 0
-136 -8 -20 -41 0
-136 -78 -51 0
-136 -23 -62 -22 0
-104 -39 -136 0
-104 -37 -136 0
137 -30 -42 0
-77 -43 -137 0
-23 -102 -27 -137 0
-5 -61 -4 -137 0
-39 -103 -137 0
-103 -37 -137 0
-79 -43 -137 0
-79 -52 -137 0
-105 -37 -137 0
-79 -51 -137 0
-105 -39 -137 0
-77 -52 -137 0
-77 -51 -137 0
138 -53 -36 0
-115 -138 -49 0
-44 -115 -138 0
-58 -138 -49 0
-47 -138 -73 0
-46 -138 -73 0
-44 -58 -138 0
-46 -74 -138 0
-47 -74 -138 0
-44 -59 -138 0
-59 -138 -49 0
-40 -82 -138 0
-40 -83 -138 0
-29 139 -41 0
-40 -139 -106 0
-38 -139 -106 0
-78 -139 -50 0
-80 -44 -139 0
-80 -139 -49 0
-80 -139 -50 0
-104 -38 -139 0
-104 -139 -40 0
-78 -139 -49 0
-78 -44 -139 0
-31 -45 140 0
-39 -140 -58 0
-46 -140 -43 0
-37 -140 -58 0
-47 -140 -43 0
-37 -140 -59 0
-39 -140 -115 0
-37 -140 -115 0
-46 -140 -51 0
-47 -140 -51 0
-46 -52 -140 0
-48 -31 141 0
-37 -115 -141 0
-39 -141 -115 0
-39 -141 -58 0
-37 -59 -141 0
-39 -141 -59 0
-46 -141 -43 0
-47 -141 -43 0
-47 -141 -51 0
-46 -141 -52 0
-47 -141 -52 0
-30 142 -41 0
-142 -77 -44 0
-40 -103 -142 0
-142 -77 -49 0
-103 -38 -142 0
-38 -142 -105 0
-142 -77 -50 0
-40 -142 -105 0
-79 -142 -50 0
-79 -142 -49 0
-79 -142 -44 0
-14 -33 143 0
-64 -143 -6 -40 0
-64 -143 -38 -6 0
-64 -143 -7 -42 0
-143 -38 -66 -9 0
-40 -143 -66 -9 0
-143 -62 -4 -42 0
-143 -62 -3 -38 0
-40 -143 -62 -3 0
-143 -75 -42 0
-32 -14 144 0
-144 -38 -27 -65 0
-144 -65 -27 -40 0
-144 -38 -61 -21 0
-144 -76 -42 0
-144 -22 -61 -42 0
-144 -40 -61 -21 0
-24 -63 -38 -144 0
-144 -63 -42 -25 0
-40 -63 -144 -24 0
145 -36 -42 0
-81 -46 -145 0
-57 -115 -145 0
-47 -81 -145 0
-60 -115 -145 0
-116 -58 -145 0
-46 -84 -145 0
-116 -59 -145 0
-47 -84 -145 0
-116 -115 -145 0
-38 -36 146 0
-46 -146 -57 0
-46 -116 -146 0
-47 -146 -57 0
-54 -146 -81 0
-54 -84 -146 0
-47 -116 -146 0
-46 -60 -146 0
-47 -60 -146 0
-54 147 -35 0
-39 -107 -147 0
-147 -37 -107 0
-39 -110 -147 0
-110 -37 -147 0
-147 -92 -43 0
-147 -92 -51 0
-52 -92 -147 0
-53 148 -34 0
-108 -37 -148 0
-39 -148 -108 0
-39 -109 -148 0
-109 -148 -37 0
-148 -43 -91 0
-148 -51 -91 0
-52 -148 -91 0
-32 149 -89 0
-63 -149 -49 0
-63 -149 -44 0
-63 -149 -50 0
-40 -149 -100 0
-38 -149 -100 0
-90 150 -33 0
-38 -99 -150 0
-40 -150 -99 0
-64 -150 -50 0
-64 -150 -44 0
-64 -150 -49 0
-54 -36 151 0
-151 -44 -57 0
-151 -116 -50 0
-151 -44 -116 0
-151 -60 -50 0
-151 -60 -44 0
-151 -50 -57 0
-40 -36 152 0
-152 -47 -57 0
-152 -46 -60 0
-152 -47 -60 0
-152 -46 -57 0
-152 -46 -116 0
-152 -47 -116 0
153 -46 -35 0
-37 -92 -153 0
-39 -92 -153 0
-41 -107 -153 0
-97 -39 -153 0
-97 -37 -153 0
-110 -41 -153 0
-47 154 -35 0
-107 -154 -41 0
-37 -92 -154 0
-39 -92 -154 0
-37 -154 -97 0
-39 -154 -97 0
-110 -154 -41 0
-45 155 -34 0
-39 -91 -155 0
-109 -155 -41 0
-39 -155 -98 0
-37 -155 -98 0
-155 -37 -91 0
-108 -155 -41 0
-48 156 -34 0
-37 -156 -98 0
-39 -156 -98 0
-108 -156 -41 0
-109 -156 -41 0
-37 -156 -91 0
-39 -156 -91 0
-38 -30 157 0
-39 -77 -157 0
-77 -37 -157 0
-79 -37 -157 0
-102 -61 -157 0
-79 -157 -39 0
-40 -30 158 0
-39 -158 -77 0
-158 -77 -37 0
-79 -158 -39 0
-79 -158 -37 0
-102 -61 -158 0
-47 -31 159 0
-159 -37 -60 0
-159 -37 -116 0
-39 -116 -159 0
-159 -37 -57 0
-39 -159 -57 0
160 -31 -46 0
-160 -39 -60 0
-160 -37 -60 0
-160 -39 -116 0
-160 -37 -116 0
-160 -39 -57 0
161 -38 -29 0
-80 -37 -161 0
-80 -39 -161 0
-62 -101 -161 0
-78 -37 -161 0
-39 -78 -161 0
-40 162 -29 0
-80 -37 -162 0
-80 -39 -162 0
-62 -101 -162 0
-39 -78 -162 0
-78 -37 -162 0
-38 163 -28 0
-112 -52 -163 0
-112 -43 -163 0
-118 -163 -65 0
-112 -51 -163 0
-22 -149 -163 0
-40 164 -28 0
-112 -52 -164 0
-112 -164 -43 0
-118 -164 -65 0
-112 -164 -51 0
-22 -149 -164 0
-38 165 -10 0
-111 -165 -51 0
-111 -165 -52 0
-111 -165 -43 0
-165 -117 -66 0
-150 -165 -4 0
-40 166 -10 0
-111 -166 -52 0
-111 -166 -43 0
-166 -117 -66 0
-150 -4 -166 0
-111 -166 -51 0
-28 -42 167 0
-112 -167 -67 0
-167 -22 -118 -25 0
-112 -167 -68 0
-144 -167 -65 0
168 -42 -10 0
-168 -111 -68 0
-168 -143 -66 0
-168 -7 -117 -4 0
-168 -111 -67 0
